(set-logic QF_S)
(declare-fun var0 () String)
(assert (RegexIn var0 (RegexConcat (RegexStar (RegexPlus (Str2Reg "0"))) (RegexConcat (RegexUnion (RegexPlus (Str2Reg "11")) (RegexPlus (Str2Reg "222"))) (RegexConcat (RegexStar (RegexPlus (Str2Reg "33"))) (RegexConcat (RegexStar (RegexUnion (Str2Reg "4") (Str2Reg "555"))) (RegexConcat (RegexPlus (RegexUnion (Str2Reg "6") (Str2Reg "77"))) (RegexConcat (RegexUnion (RegexUnion (Str2Reg "8") (Str2Reg "999")) (RegexUnion (Str2Reg "aaa") (Str2Reg "b"))) (RegexConcat (RegexStar (RegexPlus (Str2Reg "cc"))) (RegexConcat (RegexUnion (RegexUnion (Str2Reg "ddd") (Str2Reg "eee")) (RegexUnion (Str2Reg "fff") (Str2Reg "g"))) (RegexConcat (RegexStar (RegexPlus (Str2Reg "h"))) (RegexConcat (RegexUnion (RegexUnion (Str2Reg "i") (Str2Reg "j")) (RegexUnion (Str2Reg "kk") (Str2Reg "lll"))) (RegexConcat (RegexStar (RegexUnion (Str2Reg "mmm") (Str2Reg "n"))) (RegexConcat (RegexPlus (RegexStar (Str2Reg "oo"))) (RegexConcat (RegexStar (RegexStar (Str2Reg "p"))) (RegexConcat (RegexStar (RegexStar (Str2Reg "q"))) (RegexConcat (RegexPlus (RegexUnion (Str2Reg "rrr") (Str2Reg "s"))) (RegexConcat (RegexUnion (RegexStar (Str2Reg "ttt")) (RegexStar (Str2Reg "uuu"))) (RegexConcat (RegexUnion (RegexStar (Str2Reg "vv")) (RegexStar (Str2Reg "ww"))) (RegexConcat (RegexStar (RegexPlus (Str2Reg "xx"))) (RegexConcat (RegexUnion (RegexPlus (Str2Reg "yy")) (RegexPlus (Str2Reg "zz"))) (RegexConcat (RegexUnion (RegexStar (Str2Reg "AA")) (RegexStar (Str2Reg "BB"))) (RegexConcat (RegexUnion (RegexStar (Str2Reg "CC")) (RegexStar (Str2Reg "DDD"))) (RegexConcat (RegexPlus (RegexUnion (Str2Reg "EEE") (Str2Reg "FF"))) (RegexConcat (RegexStar (RegexStar (Str2Reg "GGG"))) (RegexConcat (RegexStar (RegexUnion (Str2Reg "HHH") (Str2Reg "III"))) (RegexConcat (RegexStar (RegexPlus (Str2Reg "JJJ"))) (RegexConcat (RegexStar (RegexPlus (Str2Reg "K"))) (RegexConcat (RegexStar (RegexStar (Str2Reg "LL"))) (RegexConcat (RegexStar (RegexUnion (Str2Reg "MMM") (Str2Reg "N"))) (RegexConcat (RegexUnion (RegexStar (Str2Reg "OOO")) (RegexStar (Str2Reg "PP"))) (RegexConcat (RegexUnion (RegexStar (Str2Reg "QQQ")) (RegexStar (Str2Reg "RRR"))) (RegexConcat (RegexPlus (RegexPlus (Str2Reg "S"))) (RegexConcat (RegexPlus (RegexPlus (Str2Reg "TT"))) (RegexConcat (RegexUnion (RegexStar (Str2Reg "UUU")) (RegexStar (Str2Reg "V"))) (RegexConcat (RegexUnion (RegexUnion (Str2Reg "WWW") (Str2Reg "XX")) (RegexUnion (Str2Reg "YY") (Str2Reg "ZZ"))) (RegexConcat (RegexPlus (RegexStar (Str2Reg "!"))) (RegexConcat (RegexUnion (RegexStar (Str2Reg "\"\"\"")) (RegexStar (Str2Reg "##"))) (RegexConcat (RegexStar (RegexPlus (Str2Reg "$$"))) (RegexConcat (RegexPlus (RegexUnion (Str2Reg "%%") (Str2Reg "&"))) (RegexConcat (RegexPlus (RegexStar (Str2Reg "'"))) (RegexConcat (RegexUnion (RegexPlus (Str2Reg "((")) (RegexPlus (Str2Reg ")))"))) (RegexConcat (RegexStar (RegexStar (Str2Reg "*"))) (RegexConcat (RegexStar (RegexPlus (Str2Reg "+++"))) (RegexConcat (RegexUnion (RegexPlus (Str2Reg ",,,")) (RegexPlus (Str2Reg "--"))) (RegexConcat (RegexUnion (RegexUnion (Str2Reg "..") (Str2Reg "/")) (RegexUnion (Str2Reg "::") (Str2Reg ";;;"))) (RegexConcat (RegexUnion (RegexPlus (Str2Reg "<<")) (RegexPlus (Str2Reg "==="))) (RegexConcat (RegexPlus (RegexUnion (Str2Reg ">") (Str2Reg "??"))) (RegexConcat (RegexUnion (RegexUnion (Str2Reg "@@") (Str2Reg "[[[")) (RegexUnion (Str2Reg "\\\\") (Str2Reg "]"))) (RegexConcat (RegexPlus (RegexPlus (Str2Reg "^"))) (RegexConcat (RegexUnion (RegexPlus (Str2Reg "_")) (RegexPlus (Str2Reg "``"))) (RegexConcat (RegexStar (RegexPlus (Str2Reg "{{{"))) (RegexConcat (RegexStar (RegexStar (Str2Reg "|||"))) (RegexConcat (RegexPlus (RegexPlus (Str2Reg "}"))) (RegexConcat (RegexStar (RegexStar (Str2Reg "~"))) (RegexConcat (RegexUnion (RegexStar (Str2Reg "00")) (RegexStar (Str2Reg "11"))) (RegexConcat (RegexUnion (RegexUnion (Str2Reg "222") (Str2Reg "333")) (RegexUnion (Str2Reg "44") (Str2Reg "555"))) (RegexConcat (RegexUnion (RegexUnion (Str2Reg "66") (Str2Reg "777")) (RegexUnion (Str2Reg "88") (Str2Reg "99"))) (RegexConcat (RegexStar (RegexStar (Str2Reg "aa"))) (RegexConcat (RegexStar (RegexStar (Str2Reg "bb"))) (RegexConcat (RegexPlus (RegexPlus (Str2Reg "ccc"))) (RegexConcat (RegexStar (RegexStar (Str2Reg "ddd"))) (RegexConcat (RegexPlus (RegexUnion (Str2Reg "ee") (Str2Reg "fff"))) (RegexConcat (RegexStar (RegexUnion (Str2Reg "gg") (Str2Reg "h"))) (RegexConcat (RegexStar (RegexStar (Str2Reg "i"))) (RegexConcat (RegexStar (RegexUnion (Str2Reg "jj") (Str2Reg "kkk"))) (RegexConcat (RegexUnion (RegexPlus (Str2Reg "l")) (RegexPlus (Str2Reg "mmm"))) (RegexConcat (RegexUnion (RegexStar (Str2Reg "nnn")) (RegexStar (Str2Reg "oo"))) (RegexConcat (RegexStar (RegexPlus (Str2Reg "ppp"))) (RegexConcat (RegexUnion (RegexUnion (Str2Reg "qq") (Str2Reg "rrr")) (RegexUnion (Str2Reg "ss") (Str2Reg "ttt"))) (RegexConcat (RegexUnion (RegexStar (Str2Reg "u")) (RegexStar (Str2Reg "v"))) (RegexConcat (RegexUnion (RegexUnion (Str2Reg "ww") (Str2Reg "xxx")) (RegexUnion (Str2Reg "y") (Str2Reg "z"))) (RegexConcat (RegexStar (RegexUnion (Str2Reg "AAA") (Str2Reg "B"))) (RegexConcat (RegexUnion (RegexUnion (Str2Reg "C") (Str2Reg "DDD")) (RegexUnion (Str2Reg "EEE") (Str2Reg "FFF"))) (RegexConcat (RegexStar (RegexUnion (Str2Reg "GGG") (Str2Reg "H"))) (RegexConcat (RegexPlus (RegexPlus (Str2Reg "II"))) (RegexConcat (RegexStar (RegexPlus (Str2Reg "J"))) (RegexConcat (RegexUnion (RegexPlus (Str2Reg "KK")) (RegexPlus (Str2Reg "LL"))) (RegexConcat (RegexStar (RegexUnion (Str2Reg "MMM") (Str2Reg "NNN"))) (RegexConcat (RegexStar (RegexPlus (Str2Reg "O"))) (RegexConcat (RegexStar (RegexUnion (Str2Reg "PPP") (Str2Reg "QQ"))) (RegexConcat (RegexPlus (RegexUnion (Str2Reg "RRR") (Str2Reg "S"))) (RegexConcat (RegexPlus (RegexStar (Str2Reg "TTT"))) (RegexConcat (RegexUnion (RegexStar (Str2Reg "UU")) (RegexStar (Str2Reg "VVV"))) (RegexConcat (RegexStar (RegexStar (Str2Reg "WW"))) (RegexConcat (RegexUnion (RegexStar (Str2Reg "X")) (RegexStar (Str2Reg "YYY"))) (RegexConcat (RegexPlus (RegexUnion (Str2Reg "ZZ") (Str2Reg "!"))) (RegexConcat (RegexStar (RegexPlus (Str2Reg "\""))) (RegexConcat (RegexStar (RegexUnion (Str2Reg "##") (Str2Reg "$$"))) (RegexConcat (RegexUnion (RegexPlus (Str2Reg "%%")) (RegexPlus (Str2Reg "&&&"))) (RegexConcat (RegexPlus (RegexPlus (Str2Reg "'''"))) (RegexConcat (RegexStar (RegexStar (Str2Reg "((("))) (RegexConcat (RegexUnion (RegexPlus (Str2Reg "))")) (RegexPlus (Str2Reg "**"))) (RegexConcat (RegexUnion (RegexPlus (Str2Reg "+++")) (RegexPlus (Str2Reg ",,"))) (RegexConcat (RegexPlus (RegexStar (Str2Reg "-"))) (RegexConcat (RegexUnion (RegexUnion (Str2Reg ".") (Str2Reg "///")) (RegexUnion (Str2Reg ":") (Str2Reg ";;"))) (RegexConcat (RegexUnion (RegexStar (Str2Reg "<<")) (RegexStar (Str2Reg "=="))) (RegexConcat (RegexStar (RegexStar (Str2Reg ">>>"))) (RegexConcat (RegexPlus (RegexPlus (Str2Reg "?"))) (RegexConcat (RegexUnion (RegexPlus (Str2Reg "@@")) (RegexPlus (Str2Reg "[["))) (RegexConcat (RegexStar (RegexPlus (Str2Reg "\\"))) (RegexConcat (RegexUnion (RegexUnion (Str2Reg "]]]") (Str2Reg "^^^")) (RegexUnion (Str2Reg "___") (Str2Reg "`"))) (RegexConcat (RegexPlus (RegexStar (Str2Reg "{{"))) (RegexConcat (RegexPlus (RegexStar (Str2Reg "|"))) (RegexConcat (RegexStar (RegexUnion (Str2Reg "}}}") (Str2Reg "~~"))) (RegexConcat (RegexPlus (RegexUnion (Str2Reg "00") (Str2Reg "1"))) (RegexConcat (RegexUnion (RegexPlus (Str2Reg "22")) (RegexPlus (Str2Reg "333"))) (RegexConcat (RegexPlus (RegexPlus (Str2Reg "444"))) (RegexConcat (RegexUnion (RegexStar (Str2Reg "55")) (RegexStar (Str2Reg "6"))) (RegexConcat (RegexUnion (RegexPlus (Str2Reg "7")) (RegexPlus (Str2Reg "88"))) (RegexConcat (RegexStar (RegexStar (Str2Reg "999"))) (RegexConcat (RegexStar (RegexStar (Str2Reg "a"))) (RegexConcat (RegexUnion (RegexPlus (Str2Reg "bb")) (RegexPlus (Str2Reg "cc"))) (RegexConcat (RegexUnion (RegexUnion (Str2Reg "dd") (Str2Reg "e")) (RegexUnion (Str2Reg "fff") (Str2Reg "gg"))) (RegexConcat (RegexPlus (RegexPlus (Str2Reg "hh"))) (RegexConcat (RegexPlus (RegexUnion (Str2Reg "iii") (Str2Reg "j"))) (RegexConcat (RegexStar (RegexUnion (Str2Reg "kk") (Str2Reg "lll"))) (RegexConcat (RegexPlus (RegexStar (Str2Reg "mm"))) (RegexConcat (RegexPlus (RegexUnion (Str2Reg "nnn") (Str2Reg "ooo"))) (RegexConcat (RegexUnion (RegexUnion (Str2Reg "ppp") (Str2Reg "q")) (RegexUnion (Str2Reg "rrr") (Str2Reg "ss"))) (RegexConcat (RegexPlus (RegexPlus (Str2Reg "tt"))) (RegexConcat (RegexUnion (RegexPlus (Str2Reg "uuu")) (RegexPlus (Str2Reg "v"))) (RegexConcat (RegexPlus (RegexStar (Str2Reg "www"))) (RegexConcat (RegexUnion (RegexPlus (Str2Reg "xx")) (RegexPlus (Str2Reg "y"))) (RegexConcat (RegexUnion (RegexPlus (Str2Reg "zzz")) (RegexPlus (Str2Reg "A"))) (RegexConcat (RegexPlus (RegexUnion (Str2Reg "BBB") (Str2Reg "C"))) (RegexConcat (RegexStar (RegexStar (Str2Reg "DDD"))) (RegexConcat (RegexStar (RegexPlus (Str2Reg "E"))) (RegexConcat (RegexStar (RegexUnion (Str2Reg "F") (Str2Reg "G"))) (RegexConcat (RegexStar (RegexUnion (Str2Reg "HHH") (Str2Reg "I"))) (RegexConcat (RegexPlus (RegexUnion (Str2Reg "J") (Str2Reg "KKK"))) (RegexConcat (RegexUnion (RegexPlus (Str2Reg "LLL")) (RegexPlus (Str2Reg "MMM"))) (RegexConcat (RegexPlus (RegexStar (Str2Reg "NN"))) (RegexConcat (RegexPlus (RegexUnion (Str2Reg "O") (Str2Reg "P"))) (RegexConcat (RegexUnion (RegexUnion (Str2Reg "Q") (Str2Reg "RRR")) (RegexUnion (Str2Reg "SSS") (Str2Reg "TT"))) (RegexConcat (RegexPlus (RegexPlus (Str2Reg "UUU"))) (RegexConcat (RegexPlus (RegexPlus (Str2Reg "V"))) (RegexConcat (RegexPlus (RegexStar (Str2Reg "WWW"))) (RegexConcat (RegexStar (RegexStar (Str2Reg "X"))) (RegexConcat (RegexStar (RegexUnion (Str2Reg "YY") (Str2Reg "ZZ"))) (RegexConcat (RegexStar (RegexUnion (Str2Reg "!!") (Str2Reg "\""))) (RegexConcat (RegexPlus (RegexUnion (Str2Reg "###") (Str2Reg "$"))) (RegexConcat (RegexUnion (RegexStar (Str2Reg "%%")) (RegexStar (Str2Reg "&&&"))) (RegexConcat (RegexPlus (RegexPlus (Str2Reg "''"))) (RegexConcat (RegexUnion (RegexPlus (Str2Reg "(((")) (RegexPlus (Str2Reg "))"))) (RegexConcat (RegexStar (RegexPlus (Str2Reg "***"))) (RegexConcat (RegexStar (RegexStar (Str2Reg "++"))) (RegexConcat (RegexUnion (RegexStar (Str2Reg ",,")) (RegexStar (Str2Reg "--"))) (RegexConcat (RegexUnion (RegexPlus (Str2Reg ".")) (RegexPlus (Str2Reg "///"))) (RegexConcat (RegexStar (RegexPlus (Str2Reg ":"))) (RegexConcat (RegexPlus (RegexStar (Str2Reg ";"))) (RegexConcat (RegexUnion (RegexPlus (Str2Reg "<<<")) (RegexPlus (Str2Reg "="))) (RegexConcat (RegexStar (RegexUnion (Str2Reg ">>") (Str2Reg "??"))) (RegexConcat (RegexStar (RegexUnion (Str2Reg "@@@") (Str2Reg "[[["))) (RegexConcat (RegexUnion (RegexStar (Str2Reg "\\\\\\")) (RegexStar (Str2Reg "]"))) (RegexConcat (RegexPlus (RegexUnion (Str2Reg "^") (Str2Reg "___"))) (RegexConcat (RegexStar (RegexStar (Str2Reg "``"))) (RegexConcat (RegexUnion (RegexUnion (Str2Reg "{{{") (Str2Reg "|||")) (RegexUnion (Str2Reg "}") (Str2Reg "~~~"))) (RegexConcat (RegexPlus (RegexPlus (Str2Reg "0"))) (RegexConcat (RegexUnion (RegexPlus (Str2Reg "1")) (RegexPlus (Str2Reg "22"))) (RegexConcat (RegexStar (RegexStar (Str2Reg "33"))) (RegexConcat (RegexUnion (RegexUnion (Str2Reg "44") (Str2Reg "55")) (RegexUnion (Str2Reg "66") (Str2Reg "77"))) (RegexConcat (RegexStar (RegexUnion (Str2Reg "888") (Str2Reg "99"))) (RegexConcat (RegexStar (RegexPlus (Str2Reg "aaa"))) (RegexConcat (RegexUnion (RegexUnion (Str2Reg "b") (Str2Reg "c")) (RegexUnion (Str2Reg "ddd") (Str2Reg "e"))) (RegexConcat (RegexStar (RegexUnion (Str2Reg "f") (Str2Reg "g"))) (RegexConcat (RegexStar (RegexUnion (Str2Reg "h") (Str2Reg "ii"))) (RegexConcat (RegexUnion (RegexStar (Str2Reg "jj")) (RegexStar (Str2Reg "kk"))) (RegexConcat (RegexStar (RegexStar (Str2Reg "l"))) (RegexConcat (RegexStar (RegexUnion (Str2Reg "mmm") (Str2Reg "nn"))) (RegexUnion (RegexUnion (Str2Reg "ooo") (Str2Reg "ppp")) (RegexUnion (Str2Reg "qq") (Str2Reg "r")))))))))))))))))))))))))))))))))))))))))))))))))))))))))))))))))))))))))))))))))))))))))))))))))))))))))))))))))))))))))))))))))))))))))))))))))))))))))))))))))))))))))))))
(check-sat)